8
cyclobutadiene C4H4, D2h minimum (ORCA 6.1.1 wB97X-D3/def2-TZVP opt+freq, no imaginary modes)
C       -0.78298601     -0.66295180     -0.00000292
C       -0.78298650      0.66295199      0.00000374
C        0.78298598      0.66295191     -0.00000338
C        0.78298600     -0.66295179      0.00000329
H       -1.54469784     -1.42887302     -0.00000658
H       -1.54469866      1.42887341      0.00000599
H        1.54469844      1.42887222     -0.00000635
H        1.54469860     -1.42887292      0.00000622
