21
ferrocene FeCp2 (ORCA 6.1.1 wB97X-D3/def2-TZVP opt+freq from exact D5h, no imaginary modes; D5h intact to 1e-4)
Fe       0.00026719     -0.00004014      0.00000718
C        1.20763490      0.00001416      1.65676131
H        2.28623916      0.00001141      1.63542202
C        0.37332234      1.14859644      1.65658824
H        0.70665600      2.17440109      1.63575783
C       -0.97680746      0.70982324      1.65653766
H       -1.85012509      1.34288378      1.63556951
C       -0.97683613     -0.70984384      1.65661841
H       -1.85016374     -1.34290270      1.63612323
C        0.37331516     -1.14858324      1.65670391
H        0.70664173     -2.17438372      1.63550004
C        1.20764203      0.00001266     -1.65675912
H        2.28624439      0.00001298     -1.63540986
C        0.37332136      1.14859675     -1.65659640
H        0.70664760      2.17440376     -1.63576081
C       -0.97681389      0.70982525     -1.65654028
H       -1.85012845      1.34288804     -1.63556993
C       -0.97684003     -0.70984621     -1.65662039
H       -1.85017336     -1.34289635     -1.63612586
C        0.37331539     -1.14858629     -1.65670737
H        0.70664087     -2.17438708     -1.63549932
