12
isobutene C4H8, 2-methylpropene (ORCA 6.1.1 wB97X-D3/def2-TZVP opt+freq, no imaginary modes)
C        0.00004396     -0.07574793     -0.00007500
C       -1.26946790      0.72594756     -0.00005854
C        1.26891773      0.72695678     -0.00005861
C        0.00057531     -1.40280275     -0.00011152
H       -1.31446173      1.37645356      0.87809116
H       -1.31448090      1.37644282     -0.87821619
H       -2.15264059      0.08747897     -0.00004681
H        1.31341662      1.37749451     -0.87821066
H        1.31340170      1.37748965      0.87809735
H        2.15259485      0.08918677     -0.00005533
H        0.92538495     -1.96833199     -0.00012688
H       -0.92378399     -1.96906792     -0.00012896
