18
2-norbornyl cation C7H11+ (charge +1; start: Scholz et al. Science 2013 SI, ORCA 6.1.1 wB97X-D3/def2-TZVP opt+freq, no imaginary modes)
C       -1.17594748     -0.06921952      0.00002412
C       -0.56758320      0.68321626     -1.19201351
C        0.84835545      0.78553109     -0.69437954
C        0.84842460      0.78560226      0.69429021
C       -0.56748541      0.68321485      1.19203031
C       -0.40178040     -1.39205857     -0.00009545
C        1.03249873     -0.88482816     -0.00003151
H       -2.25816184     -0.15494129      0.00007510
H       -0.96832305      1.69577853     -1.29790651
H       -0.66003804      0.17237562     -2.14902036
H        1.70748279      1.04224515     -1.30033332
H        1.70757603      1.04239369      1.30017773
H       -0.65981559      0.17233627      2.14903572
H       -0.96825826      1.69575388      1.29799478
H       -0.61039119     -1.99361920     -0.88325542
H       -0.61033102     -1.99385599      0.88291690
H        1.65157530     -1.13478376      0.86364110
H        1.65217258     -1.13513110     -0.86315038
