9
propene C3H6 (ORCA 6.1.1 wB97X-D3/def2-TZVP opt+freq, no imaginary modes)
C        1.28334539     -0.20050009      0.00001800
C       -0.07245989      0.43016781      0.00007556
C       -1.21963775     -0.23088609     -0.00006051
H        1.85731884      0.10740770     -0.87778286
H        1.21536254     -1.28921162      0.00022136
H        1.85755989      0.10773379      0.87754312
H       -0.09563438      1.51761607      0.00021179
H       -2.17132734      0.28628895     -0.00003916
H       -1.24862730     -1.31581652     -0.00018730
