13
tert-butyl cation C4H9+ (2-methylpropan-2-ium)
C     -2.48146150   -0.13885277    0.18320517
C     -3.71416534   -0.03323052    0.95294808
H     -2.36110111   -1.80625957   -1.02184197
C     -1.21603651    0.27589220    0.77473300
C     -2.50419015   -0.72432927   -1.15093112
H     -1.33600869    1.05352118    1.52880473
H     -0.81027155   -0.60207635    1.29649703
H     -0.47372275    0.56101130    0.02948022
H     -3.68215401    0.76320516    1.69617739
H     -4.60015364    0.05039972    0.32385743
H     -3.81781032   -0.97423431    1.51105311
H     -3.46379206   -0.59865333   -1.65202399
H     -1.68350649   -0.37835776   -1.77902854
